NAME: concorde91
TYPE: TSP
DIMENSION: 15 
EDGE_WEIGHT_TYPE: EUC_2D
NODE_COORD_SECTION
1 75 94
2 45 13
3 47 98
4 47 35
5 74 23
6 10 62
7 64 75
8 42 97
9 80 94
10 62 80
11 25 31
12 68 9
13 35 20
14 90 3
15 66 58
